100
1457
7
16
50
26
61
66
50
41
0 1
0 6
0 10
0 14
0 19
0 21
0 22
0 27
0 29
0 30
0 32
0 36
0 40
0 41
0 42
0 45
0 47
0 48
0 49
0 50
0 51
0 56
0 58
0 63
0 68
0 75
0 76
0 78
0 83
0 86
0 87
0 89
0 92
0 93
0 94
0 95
0 97
1 5
1 12
1 17
1 18
1 20
1 23
1 25
1 27
1 29
1 41
1 43
1 47
1 56
1 57
1 60
1 65
1 68
1 71
1 78
1 83
1 84
1 85
1 89
1 90
1 91
1 94
1 98
2 4
2 7
2 8
2 11
2 13
2 33
2 37
2 38
2 41
2 42
2 46
2 47
2 49
2 52
2 53
2 54
2 57
2 60
2 67
2 69
2 73
2 75
2 79
2 80
2 84
2 86
2 87
2 91
2 93
2 95
2 96
2 99
3 9
3 12
3 13
3 19
3 21
3 24
3 33
3 40
3 45
3 47
3 54
3 55
3 56
3 57
3 59
3 67
3 71
3 73
3 74
3 77
3 86
3 87
3 90
3 95
3 99
4 12
4 13
4 15
4 16
4 19
4 32
4 34
4 37
4 39
4 45
4 46
4 55
4 61
4 64
4 65
4 74
4 75
4 77
4 81
4 82
4 83
4 84
4 86
4 92
4 93
4 97
5 14
5 16
5 20
5 21
5 23
5 30
5 34
5 38
5 41
5 43
5 47
5 49
5 50
5 51
5 56
5 60
5 62
5 63
5 66
5 68
5 69
5 71
5 73
5 75
5 76
5 81
5 82
5 83
5 85
5 86
5 90
5 92
5 98
5 99
6 7
6 9
6 11
6 13
6 25
6 27
6 30
6 34
6 37
6 38
6 46
6 47
6 49
6 51
6 55
6 56
6 57
6 59
6 63
6 66
6 67
6 71
6 72
6 76
6 80
6 81
6 84
6 96
6 98
7 8
7 22
7 23
7 25
7 27
7 29
7 30
7 36
7 37
7 48
7 53
7 56
7 59
7 60
7 62
7 71
7 72
7 74
7 75
7 77
7 79
7 80
7 81
7 84
7 85
7 88
7 95
8 11
8 12
8 16
8 17
8 20
8 28
8 34
8 41
8 50
8 53
8 55
8 61
8 65
8 67
8 68
8 69
8 71
8 81
8 90
8 92
8 95
8 97
9 16
9 24
9 29
9 31
9 34
9 35
9 49
9 51
9 53
9 54
9 57
9 70
9 73
9 77
9 82
9 87
9 88
9 89
9 92
9 93
9 94
9 99
10 20
10 21
10 25
10 32
10 46
10 49
10 52
10 53
10 54
10 55
10 61
10 63
10 64
10 65
10 72
10 76
10 81
10 82
10 85
10 86
10 88
10 91
10 93
10 99
11 12
11 13
11 17
11 19
11 22
11 23
11 25
11 27
11 28
11 30
11 40
11 44
11 46
11 47
11 48
11 53
11 55
11 57
11 58
11 62
11 63
11 66
11 68
11 75
11 82
11 92
11 94
12 13
12 15
12 16
12 18
12 19
12 21
12 22
12 25
12 27
12 29
12 30
12 32
12 50
12 52
12 55
12 60
12 63
12 64
12 65
12 66
12 69
12 73
12 77
12 83
12 86
12 87
12 93
12 94
12 97
12 98
12 99
13 17
13 19
13 23
13 25
13 31
13 35
13 38
13 39
13 40
13 41
13 43
13 56
13 57
13 59
13 62
13 64
13 65
13 67
13 70
13 71
13 74
13 88
13 98
14 17
14 18
14 19
14 21
14 22
14 24
14 26
14 28
14 33
14 34
14 35
14 39
14 40
14 44
14 47
14 53
14 55
14 56
14 59
14 61
14 62
14 63
14 64
14 69
14 70
14 79
14 82
14 84
14 86
14 87
14 88
14 91
14 99
15 19
15 20
15 24
15 25
15 26
15 27
15 29
15 31
15 37
15 41
15 44
15 47
15 65
15 66
15 72
15 79
15 88
15 90
15 93
15 96
15 97
15 98
16 19
16 20
16 25
16 26
16 29
16 30
16 31
16 32
16 38
16 42
16 43
16 44
16 46
16 47
16 59
16 65
16 72
16 74
16 77
16 80
16 81
16 82
16 98
17 18
17 25
17 26
17 29
17 35
17 45
17 46
17 54
17 63
17 67
17 68
17 69
17 75
17 78
17 79
17 86
17 91
17 94
17 95
18 19
18 24
18 25
18 30
18 32
18 35
18 38
18 40
18 41
18 42
18 46
18 47
18 49
18 52
18 60
18 61
18 62
18 64
18 66
18 68
18 73
18 74
18 80
18 85
18 87
18 88
18 90
18 94
18 97
19 22
19 26
19 27
19 29
19 42
19 43
19 44
19 45
19 48
19 53
19 55
19 57
19 58
19 61
19 69
19 70
19 72
19 75
19 78
19 88
19 90
19 94
19 95
19 96
19 98
20 31
20 33
20 34
20 40
20 41
20 43
20 46
20 47
20 50
20 57
20 59
20 72
20 76
20 81
20 83
20 86
20 90
20 95
20 96
20 98
20 99
21 22
21 23
21 24
21 28
21 30
21 32
21 35
21 36
21 37
21 38
21 39
21 44
21 45
21 48
21 51
21 55
21 56
21 60
21 62
21 67
21 73
21 74
21 78
21 80
21 84
21 86
21 87
21 88
21 89
21 90
21 91
21 93
21 97
22 23
22 24
22 28
22 31
22 34
22 37
22 40
22 42
22 46
22 48
22 49
22 50
22 59
22 70
22 71
22 75
22 78
22 79
22 82
22 84
22 86
22 99
23 26
23 27
23 31
23 34
23 38
23 40
23 45
23 48
23 49
23 51
23 52
23 53
23 57
23 58
23 61
23 64
23 66
23 68
23 69
23 71
23 72
23 75
23 78
23 82
23 83
23 84
23 92
23 94
23 97
24 28
24 32
24 36
24 50
24 52
24 54
24 55
24 59
24 60
24 61
24 63
24 71
24 72
24 76
24 77
24 78
24 84
24 86
24 97
25 27
25 29
25 32
25 38
25 41
25 46
25 53
25 55
25 56
25 59
25 65
25 66
25 67
25 69
25 75
25 76
25 77
25 88
25 89
25 90
25 91
25 93
25 95
25 96
25 99
26 30
26 34
26 37
26 39
26 43
26 47
26 51
26 52
26 54
26 57
26 60
26 61
26 62
26 64
26 65
26 67
26 68
26 72
26 73
26 74
26 78
26 79
26 81
26 90
26 95
27 31
27 39
27 40
27 42
27 45
27 60
27 61
27 64
27 66
27 73
27 74
27 84
27 87
27 88
27 91
27 92
27 93
28 32
28 33
28 34
28 41
28 46
28 47
28 49
28 55
28 58
28 59
28 62
28 72
28 74
28 75
28 88
28 90
28 91
28 93
28 96
28 98
29 33
29 34
29 35
29 36
29 39
29 41
29 45
29 47
29 50
29 53
29 54
29 56
29 58
29 61
29 62
29 63
29 68
29 75
29 79
29 80
29 83
29 85
29 88
29 89
29 90
29 92
29 95
29 97
29 98
30 31
30 33
30 35
30 38
30 46
30 51
30 53
30 56
30 57
30 60
30 62
30 64
30 69
30 70
30 73
30 74
30 76
30 83
30 87
30 93
30 98
31 33
31 36
31 39
31 44
31 45
31 47
31 58
31 67
31 75
31 76
31 88
31 97
32 38
32 40
32 42
32 43
32 44
32 46
32 48
32 55
32 56
32 59
32 62
32 64
32 65
32 67
32 68
32 69
32 71
32 72
32 75
32 79
32 84
32 90
32 97
33 40
33 43
33 44
33 50
33 54
33 55
33 56
33 59
33 65
33 74
33 76
33 92
33 95
33 97
33 98
34 37
34 39
34 40
34 42
34 46
34 48
34 54
34 63
34 64
34 67
34 68
34 70
34 71
34 75
34 82
34 83
34 88
34 89
34 93
34 94
34 97
35 37
35 40
35 41
35 43
35 47
35 51
35 57
35 64
35 65
35 71
35 76
35 77
35 79
35 81
35 87
35 96
35 98
36 37
36 41
36 51
36 53
36 58
36 59
36 66
36 68
36 72
36 73
36 75
36 79
36 80
36 81
36 86
36 88
36 94
37 38
37 40
37 41
37 43
37 45
37 49
37 52
37 53
37 54
37 56
37 61
37 68
37 71
37 76
37 77
37 85
37 86
37 92
37 93
37 94
37 95
37 97
37 98
38 40
38 43
38 48
38 51
38 53
38 54
38 57
38 62
38 63
38 66
38 73
38 74
38 77
38 79
38 80
38 83
38 86
38 87
38 88
38 90
38 99
39 41
39 43
39 45
39 47
39 58
39 71
39 82
39 83
39 90
40 41
40 42
40 49
40 54
40 62
40 66
40 71
40 73
40 74
40 80
40 83
40 91
40 94
40 97
40 98
41 44
41 48
41 49
41 52
41 54
41 58
41 62
41 64
41 65
41 69
41 75
41 82
41 84
41 90
41 93
41 95
41 96
41 97
42 44
42 49
42 50
42 56
42 63
42 67
42 70
42 74
42 76
42 80
42 87
42 88
42 89
42 94
43 49
43 52
43 56
43 58
43 60
43 62
43 69
43 72
43 73
43 76
43 77
43 80
43 82
43 85
43 89
44 47
44 50
44 56
44 59
44 60
44 62
44 63
44 70
44 71
44 73
44 75
44 78
44 79
44 80
44 83
44 88
44 89
44 91
44 95
44 96
44 97
45 46
45 52
45 55
45 56
45 59
45 63
45 67
45 69
45 70
45 71
45 74
45 78
45 79
45 80
45 85
45 87
45 91
45 94
45 97
45 98
46 47
46 49
46 55
46 56
46 57
46 58
46 64
46 71
46 73
46 76
46 77
46 84
46 86
46 87
46 90
46 92
46 93
46 94
47 50
47 51
47 53
47 55
47 57
47 59
47 61
47 63
47 72
47 74
47 75
47 82
47 88
47 91
47 92
47 94
48 49
48 55
48 57
48 59
48 69
48 70
48 77
48 78
48 88
48 90
48 91
48 93
48 95
48 98
49 53
49 55
49 58
49 60
49 61
49 62
49 63
49 74
49 75
49 78
49 79
49 81
49 82
49 87
49 90
49 94
49 96
49 99
50 51
50 61
50 62
50 65
50 73
50 75
50 79
50 81
50 82
50 86
50 93
50 95
50 96
51 58
51 59
51 61
51 71
51 72
51 73
51 75
51 76
51 78
51 79
51 80
51 84
51 88
51 90
51 92
51 93
51 94
52 54
52 57
52 62
52 65
52 87
52 96
52 98
52 99
53 57
53 59
53 60
53 64
53 68
53 73
53 74
53 78
53 79
53 87
53 93
53 99
54 55
54 60
54 61
54 62
54 65
54 67
54 68
54 74
54 77
54 78
54 84
54 96
55 60
55 62
55 69
55 70
55 72
55 75
55 78
55 81
55 83
55 91
55 93
55 96
56 62
56 64
56 66
56 72
56 76
56 79
56 81
56 82
56 86
56 88
56 89
56 90
56 92
57 61
57 65
57 67
57 70
57 73
57 76
57 81
57 85
57 89
57 92
57 96
57 98
58 59
58 61
58 65
58 75
58 83
58 90
58 94
58 98
59 63
59 64
59 74
59 77
59 79
59 82
59 85
59 92
59 95
59 96
59 99
60 62
60 65
60 69
60 70
60 73
60 75
60 76
60 77
60 81
60 84
60 87
60 88
60 91
60 96
60 97
60 98
61 63
61 64
61 66
61 67
61 70
61 73
61 74
61 78
61 84
61 89
61 91
61 92
61 94
61 98
62 66
62 69
62 81
62 85
62 87
62 88
62 92
62 94
62 97
62 99
63 64
63 69
63 71
63 74
63 76
63 80
63 85
63 90
63 91
63 94
64 65
64 67
64 76
64 77
64 78
64 79
64 84
64 94
64 95
64 97
65 67
65 69
65 71
65 73
65 75
65 76
65 77
65 83
65 84
65 85
65 89
65 92
65 95
65 98
66 71
66 73
66 77
66 92
66 95
66 96
66 97
66 98
66 99
67 74
67 77
67 82
67 83
67 95
67 97
68 72
68 75
68 80
68 83
68 84
68 89
68 93
68 98
69 70
69 73
69 84
69 93
69 95
69 96
69 98
70 72
70 76
70 77
70 79
70 80
70 83
70 87
70 88
70 91
70 92
71 77
71 78
71 84
71 85
71 86
71 89
71 92
72 78
72 81
72 83
72 90
72 94
72 97
72 99
73 81
73 84
73 90
73 95
74 77
74 80
74 82
74 92
74 97
75 78
75 85
75 87
75 89
75 94
75 95
76 88
76 89
76 90
76 91
76 93
76 96
76 98
77 82
77 86
77 89
77 93
77 95
77 99
78 80
78 89
78 93
78 97
79 81
79 83
79 91
79 93
79 94
79 95
79 99
80 82
80 88
80 89
80 98
81 84
81 85
82 85
82 89
82 90
82 93
82 95
83 85
83 86
83 90
83 99
84 86
84 87
84 95
85 86
85 88
85 90
85 97
86 93
86 97
86 98
87 88
87 96
87 97
87 98
88 92
88 96
88 97
89 97
89 98
90 93
90 95
90 99
91 97
92 99
93 94
93 98
93 99
94 97
95 98
96 97
97 99
98 99
83 1 11 5 91 45 98 64 44 16 95 68 58 89 19
17 42 34 14 70 27 59 23 75 4 93 12 94 55 82
52 88 77 22 31 84 41 61 6 99 79 85 37 72 74
18 80 87 21 48 67 9 36 20 76 97 78 66 10 60
65 32 39 28 7 73 29 57 96 51 43 30 71 54 15
13 50 53 56 8 3 86 0 40 81 33 47 38 62 63
69 90 25 46 2 26 92 49 24 35
